Cu2Se
1.0
0 2.948 2.948
2.948 0 2.948
2.948 2.948 0
Cu Se
2 1
Direct
0.75 0.75 0.75
0.25 0.25 0.25
0 0 0