Tl2 In2 Te4                             
   1.00000000000000     
    -4.2026365382333610    4.2026365382333610    3.5656612836746233
     4.2026365382333610   -4.2026365382333610    3.5656612836746233
     4.2026365382333610    4.2026365382333610   -3.5656612836746233
   Tl   In   Te
     2     2     4
Direct
  0.7500000000000000  0.7500000000000000  0.0000000000000000
  0.2500000000000000  0.2500000000000000  0.0000000000000000
  0.2500000000000000  0.7500000000000000  0.5000000000000000
  0.7500000000000000  0.2500000000000000  0.5000000000000000
  0.8151717472419975  0.6848282527580025  0.5000000000000000
  0.1848282527580096  0.3151717472419904  0.5000000000000000
  0.6848282527580025  0.1848282527580096  0.8696565055160193
  0.3151717472419904  0.8151717472419975  0.1303434944839807
 
  0.00000000E+00  0.00000000E+00  0.00000000E+00
  0.00000000E+00  0.00000000E+00  0.00000000E+00
  0.00000000E+00  0.00000000E+00  0.00000000E+00
  0.00000000E+00  0.00000000E+00  0.00000000E+00
  0.00000000E+00  0.00000000E+00  0.00000000E+00
  0.00000000E+00  0.00000000E+00  0.00000000E+00
  0.00000000E+00  0.00000000E+00  0.00000000E+00
  0.00000000E+00  0.00000000E+00  0.00000000E+00
