cu3 sb1 se3  [ORC,ORC,oP28] (STD_PRIM do
   1.00000000000000     
     6.6813961014968672    0.0000000000000000    0.0000000000000000
     0.0000000000000000    7.9408050314194680    0.0000000000000000
     0.0000000000000000    0.0000000000000000   10.5043633865730381
   Cu   Sb   Se
    12     4    12
Direct
  0.7292280683485401  0.1046737644128584  0.9479786601519535
  0.2707719146513412  0.8953262355871345  0.0520213088480332
  0.2292280853485948  0.3953262355871061  0.0520213088480332
  0.7707719316514599  0.6046737644128655  0.9479786601519535
  0.2707719146513412  0.8953262355871345  0.4479786461519311
  0.7292280683485401  0.1046737644128584  0.5520213538480405
  0.7707719316514599  0.6046737644128655  0.5520213538480405
  0.2292280853485948  0.3953262355871061  0.4479786461519311
  0.5470777184627806  0.2039568403893597  0.7500000000000000
  0.4529222465372555  0.7960431296105241  0.2500000000000000
  0.0470777534627445  0.2960431596106687  0.2500000000000000
  0.9529222815372194  0.7039568703894759  0.7500000000000000
  0.1135909123793724  0.2529037608645623  0.7500000000000000
  0.8864091136206582  0.7470962391354661  0.2500000000000000
  0.6135908773793375  0.2470962541354780  0.2500000000000000
  0.3864090876206490  0.7529037608645339  0.7500000000000000
  0.8578283825083659  0.0029433170242328  0.7500000000000000
  0.1421715744916199  0.9970567079758013  0.2500000000000000
  0.3578284255083304  0.4970566779757419  0.2500000000000000
  0.6421716094916334  0.5029432920241916  0.7500000000000000
  0.3471755448579330  0.1548967071061043  0.9431170083711251
  0.6528244891419490  0.8451032628939501  0.0568829916288962
  0.8471755278580488  0.3451032928939455  0.0568829916288962
  0.1528244551420457  0.6548967371060499  0.9431170083711251
  0.6528244891419490  0.8451032628939501  0.4431170083710612
  0.3471755448579330  0.1548967071061043  0.5568829916288749
  0.1528244551420457  0.6548967371060499  0.5568829916288749
  0.8471755278580488  0.3451032928939455  0.4431170083710612