Tl4 Ag4 Te4  [ORC,ORC,oP12] (STD_PRIM do
   1.00000000000000     
     4.8237989849971452    0.0000000000000000    0.0000000000000000
    -0.0000000000000001    7.7688330450484973    0.0000000000000000
     0.0000000000000000    0.0000000000000000    8.5644636783269235
   Tl   Ag   Te
     4     4     4
Direct
  0.2500000000000000  0.1751955131055212  0.0193420685027874
  0.7500000000000000  0.8248044868944788  0.9806579534972144
  0.7500000000000000  0.6751955131055212  0.4806579234972119
  0.2500000000000000  0.3248044868944788  0.5193420465027856
  0.7500000000000000  0.4105635404083472  0.1673494498590173
  0.2500000000000000  0.5894364595916528  0.8326505801409851
  0.2500000000000000  0.9105635404083472  0.3326505501409827
  0.7500000000000000  0.0894364595916528  0.6673494198590149
  0.2500000000000000  0.5969312323953986  0.1811743810625828
  0.7500000000000000  0.4030687376045989  0.8188256489374126
  0.7500000000000000  0.0969312623954011  0.3188256189374172
  0.2500000000000000  0.9030687676046014  0.6811743510625874
 
  0.00000000E+00  0.00000000E+00  0.00000000E+00
  0.00000000E+00  0.00000000E+00  0.00000000E+00
  0.00000000E+00  0.00000000E+00  0.00000000E+00
  0.00000000E+00  0.00000000E+00  0.00000000E+00
  0.00000000E+00  0.00000000E+00  0.00000000E+00
  0.00000000E+00  0.00000000E+00  0.00000000E+00
  0.00000000E+00  0.00000000E+00  0.00000000E+00
  0.00000000E+00  0.00000000E+00  0.00000000E+00
  0.00000000E+00  0.00000000E+00  0.00000000E+00
  0.00000000E+00  0.00000000E+00  0.00000000E+00
  0.00000000E+00  0.00000000E+00  0.00000000E+00
  0.00000000E+00  0.00000000E+00  0.00000000E+00
