Cs4 Ag20 Te12  [TET,TET,tP36] (STD_PRIM 
   1.00000000000000     
    14.4774507661485288    0.0000000000000000    0.0000000000000000
     0.0000000000000000   14.4774507661485288    0.0000000000000000
     0.0000000000000000    0.0000000000000000    4.5043178778976740
   Cs   Ag   Te
     4    20    12
Direct
  0.1119741232018470  0.8880258847981537  0.5000000000000000
  0.8880258847981537  0.1119741152018463  0.5000000000000000
  0.6119741152018463  0.6119741152018463  0.0000000000000000
  0.3880258847981537  0.3880258847981537  0.0000000000000000
  0.0154863040279025  0.6017714474167946  0.5000000000000000
  0.9845137189720887  0.3982285525832054  0.5000000000000000
  0.8982285525832054  0.5154862810279113  0.0000000000000000
  0.1017714474167946  0.4845136889720933  0.0000000000000000
  0.4845136889720933  0.1017714474167946  0.0000000000000000
  0.5154862810279113  0.8982285525832054  0.0000000000000000
  0.6017714474167946  0.0154863040279025  0.5000000000000000
  0.3982285525832054  0.9845137189720887  0.5000000000000000
  0.0822878995001304  0.2886574318642943  0.0000000000000000
  0.9177120784998678  0.7113425381357104  0.0000000000000000
  0.2113425681357057  0.5822879215001322  0.5000000000000000
  0.7886574618642896  0.4177121074998666  0.5000000000000000
  0.4177121074998666  0.7886574618642896  0.5000000000000000
  0.5822879215001322  0.2113425681357057  0.5000000000000000
  0.2886574318642943  0.0822878995001304  0.0000000000000000
  0.7113425381357104  0.9177120784998678  0.0000000000000000
  0.1795839735460376  0.1795839735460376  0.5000000000000000
  0.8204160414539601  0.8204160414539601  0.5000000000000000
  0.3204160414539530  0.6795839585460399  0.0000000000000000
  0.6795839585460399  0.3204160414539530  0.0000000000000000
  0.1166258492968026  0.6756864669053755  0.0000000000000000
  0.8833741587031980  0.3243135330946245  0.0000000000000000
  0.8243135330946245  0.6166258412968020  0.5000000000000000
  0.1756864669053755  0.3833741587031980  0.5000000000000000
  0.3833741587031980  0.1756864669053755  0.5000000000000000
  0.6166258412968020  0.8243135330946245  0.5000000000000000
  0.6756864669053755  0.1166258492968026  0.0000000000000000
  0.3243135330946245  0.8833741587031980  0.0000000000000000
  0.0996893573017275  0.0996893573017275  0.0000000000000000
  0.9003106346982790  0.9003106346982790  0.0000000000000000
  0.4003106346982719  0.5996893653017210  0.5000000000000000
  0.5996893653017210  0.4003106346982719  0.5000000000000000
 
  0.00000000E+00  0.00000000E+00  0.00000000E+00
  0.00000000E+00  0.00000000E+00  0.00000000E+00
  0.00000000E+00  0.00000000E+00  0.00000000E+00
  0.00000000E+00  0.00000000E+00  0.00000000E+00
  0.00000000E+00  0.00000000E+00  0.00000000E+00
  0.00000000E+00  0.00000000E+00  0.00000000E+00
  0.00000000E+00  0.00000000E+00  0.00000000E+00
  0.00000000E+00  0.00000000E+00  0.00000000E+00
  0.00000000E+00  0.00000000E+00  0.00000000E+00
  0.00000000E+00  0.00000000E+00  0.00000000E+00
  0.00000000E+00  0.00000000E+00  0.00000000E+00
  0.00000000E+00  0.00000000E+00  0.00000000E+00
  0.00000000E+00  0.00000000E+00  0.00000000E+00
  0.00000000E+00  0.00000000E+00  0.00000000E+00
  0.00000000E+00  0.00000000E+00  0.00000000E+00
  0.00000000E+00  0.00000000E+00  0.00000000E+00
  0.00000000E+00  0.00000000E+00  0.00000000E+00
  0.00000000E+00  0.00000000E+00  0.00000000E+00
  0.00000000E+00  0.00000000E+00  0.00000000E+00
  0.00000000E+00  0.00000000E+00  0.00000000E+00
  0.00000000E+00  0.00000000E+00  0.00000000E+00
  0.00000000E+00  0.00000000E+00  0.00000000E+00
  0.00000000E+00  0.00000000E+00  0.00000000E+00
  0.00000000E+00  0.00000000E+00  0.00000000E+00
  0.00000000E+00  0.00000000E+00  0.00000000E+00
  0.00000000E+00  0.00000000E+00  0.00000000E+00
  0.00000000E+00  0.00000000E+00  0.00000000E+00
  0.00000000E+00  0.00000000E+00  0.00000000E+00
  0.00000000E+00  0.00000000E+00  0.00000000E+00
  0.00000000E+00  0.00000000E+00  0.00000000E+00
  0.00000000E+00  0.00000000E+00  0.00000000E+00
  0.00000000E+00  0.00000000E+00  0.00000000E+00
  0.00000000E+00  0.00000000E+00  0.00000000E+00
  0.00000000E+00  0.00000000E+00  0.00000000E+00
  0.00000000E+00  0.00000000E+00  0.00000000E+00
  0.00000000E+00  0.00000000E+00  0.00000000E+00
