C2
1.0
   0.0000000000000000    1.7867149617064075    1.7867149617064075
   1.7867149617064075   -0.0000000000000000    1.7867149617064075
   1.7867149617064075    1.7867149617064075    0.0000000000000000
C
2
direct
   0.0000000000000000    0.0000000000000000    0.0000000000000000 C
   0.2500000000000000    0.2500000000000000    0.2500000000000000 C
