GeGaBa                                  
   1.00000000000000     
    10.7331020378083224    0.0000000000000000    0.0000000000000000
     0.0000000000000000   10.7331020378083224    0.0000000000000000
     0.0000000000000000    0.0000000000000000   10.7331020378083224
   Ge   Ga   Sr
    30    16     8
Direct
  0.2500000000000000  0.0000000000000000  0.5000000000000000
  0.7500000000000000  0.0000000000000000  0.5000000000000000
  0.5000000000000000  0.2500000000000000  0.0000000000000000
  0.5000000000000000  0.7500000000000000  0.0000000000000000
  0.0000000000000000  0.5000000000000000  0.2500000000000000
  0.0000000000000000  0.5000000000000000  0.7500000000000000
  0.0000000000000000  0.3083345017717818  0.1165478280196908
  0.0000000000000000  0.6916654682282157  0.8834521869803069
  0.0000000000000000  0.6916654682282157  0.1165478280196908
  0.0000000000000000  0.3083345017717818  0.8834521869803069
  0.1165478280196908  0.0000000000000000  0.3083345017717818
  0.8834521869803069  0.0000000000000000  0.6916654682282157
  0.1165478280196908  0.0000000000000000  0.6916654682282157
  0.8834521869803069  0.0000000000000000  0.3083345017717818
  0.3083345017717818  0.1165478280196908  0.0000000000000000
  0.6916654682282157  0.8834521869803069  0.0000000000000000
  0.6916654682282157  0.1165478280196908  0.0000000000000000
  0.3083345017717818  0.8834521869803069  0.0000000000000000
  0.8083345317717843  0.5000000000000000  0.3834521869803069
  0.1916654982282182  0.5000000000000000  0.6165478130196931
  0.1916654982282182  0.5000000000000000  0.3834521869803069
  0.8083345317717843  0.5000000000000000  0.6165478130196931
  0.5000000000000000  0.6165478130196931  0.1916654982282182
  0.5000000000000000  0.3834521869803069  0.8083345317717843
  0.5000000000000000  0.6165478130196931  0.8083345317717843
  0.5000000000000000  0.3834521869803069  0.1916654982282182
  0.6165478130196931  0.8083345317717843  0.5000000000000000
  0.3834521869803069  0.1916654982282182  0.5000000000000000
  0.6165478130196931  0.1916654982282182  0.5000000000000000
  0.3834521869803069  0.8083345317717843  0.5000000000000000
  0.1850713409823612  0.1850713409823612  0.1850713409823612
  0.8149286590176388  0.8149286590176388  0.8149286590176388
  0.8149286590176388  0.8149286590176388  0.1850713409823612
  0.1850713409823612  0.1850713409823612  0.8149286590176388
  0.8149286590176388  0.1850713409823612  0.8149286590176388
  0.1850713409823612  0.8149286590176388  0.1850713409823612
  0.1850713409823612  0.8149286590176388  0.8149286590176388
  0.8149286590176388  0.1850713409823612  0.1850713409823612
  0.6850713409823612  0.6850713409823612  0.3149286590176388
  0.3149286590176388  0.3149286590176388  0.6850713409823612
  0.3149286590176388  0.3149286590176388  0.3149286590176388
  0.6850713409823612  0.6850713409823612  0.6850713409823612
  0.6850713409823612  0.3149286590176388  0.6850713409823612
  0.3149286590176388  0.6850713409823612  0.3149286590176388
  0.3149286590176388  0.6850713409823612  0.6850713409823612
  0.6850713409823612  0.3149286590176388  0.3149286590176388
  0.0000000000000000  0.0000000000000000  0.0000000000000000
  0.5000000000000000  0.5000000000000000  0.5000000000000000
  0.2500000000000000  0.5000000000000000  0.0000000000000000
  0.7500000000000000  0.5000000000000000  0.0000000000000000
  0.0000000000000000  0.2500000000000000  0.5000000000000000
  0.0000000000000000  0.7500000000000000  0.5000000000000000
  0.5000000000000000  0.0000000000000000  0.2500000000000000
  0.5000000000000000  0.0000000000000000  0.7500000000000000