Cu2 Bi2 Se2 O2                          
   1.00000000000000     
     3.9006485564006006    0.0000000000000000    0.0000000000000000
     0.0000000000000000    3.9006485564006006    0.0000000000000000
     0.0000000000000000    0.0000000000000000    8.8344833794381419
   Cu   Bi   Se   O 
     2     2     2     2
Direct
  0.0000000000000000  0.0000000000000000  0.5000000000000000
  0.5000000000000000  0.5000000000000000  0.5000000000000000
  0.0000000000000000  0.5000000000000000  0.8565814611352991
  0.5000000000000000  0.0000000000000000  0.1434185388647009
  0.0000000000000000  0.5000000000000000  0.3253377482151194
  0.5000000000000000  0.0000000000000000  0.6746622817848760
  0.0000000000000000  0.0000000000000000  0.0000000000000000
  0.5000000000000000  0.5000000000000000  0.0000000000000000
 
  0.00000000E+00  0.00000000E+00  0.00000000E+00
  0.00000000E+00  0.00000000E+00  0.00000000E+00
  0.00000000E+00  0.00000000E+00  0.00000000E+00
  0.00000000E+00  0.00000000E+00  0.00000000E+00
  0.00000000E+00  0.00000000E+00  0.00000000E+00
  0.00000000E+00  0.00000000E+00  0.00000000E+00
  0.00000000E+00  0.00000000E+00  0.00000000E+00
  0.00000000E+00  0.00000000E+00  0.00000000E+00
