Tl6 V2 Se8  [BCC,BCC,cI16] (STD_PRIM doi
   1.00000000000000     
    -3.8291240938133666    3.8291240938133666    3.8291240938133666
     3.8291240938133666   -3.8291240938133666    3.8291240938133666
     3.8291240938133666    3.8291240938133666   -3.8291240938133666
   Tl   V    Se
     3     1     4
Direct
  0.5000000000000000 -0.0000000000000000  0.5000000000000000
  0.5000000000000000  0.5000000000000000 -0.0000000000000000
 -0.0000000000000000  0.5000000000000000  0.5000000000000000
 -0.0000000000000000 -0.0000000000000000 -0.0000000000000000
 -0.0000000000000000 -0.0000000000000000  0.3432227045143592
  0.3432227345143545  0.0000000000000000  0.0000000000000000
  0.0000000000000000  0.3432227045143592 -0.0000000000000000
  0.6567772954856408  0.6567772954856408  0.6567772954856408
 
  0.00000000E+00  0.00000000E+00  0.00000000E+00
  0.00000000E+00  0.00000000E+00  0.00000000E+00
  0.00000000E+00  0.00000000E+00  0.00000000E+00
  0.00000000E+00  0.00000000E+00  0.00000000E+00
  0.00000000E+00  0.00000000E+00  0.00000000E+00
  0.00000000E+00  0.00000000E+00  0.00000000E+00
  0.00000000E+00  0.00000000E+00  0.00000000E+00
  0.00000000E+00  0.00000000E+00  0.00000000E+00
